NAME: burma14
TYPE: TSP
COMMENT: 14-Staedte in Burma (Zaw Win)
DIMENSION: 14
EDGE_WEIGHT_TYPE: GEO
EDGE_WEIGHT_FORMAT: FUNCTION 
DISPLAY_DATA_TYPE: COORD_DISPLAY
NODE_COORD_SECTION
1 647 610
2 647 444
3 1009 254
4 1239 337
5 1523 724
6 1200 605
7 1047 702
8 720 629
9 630 738
10 405 812
11 653 738
12 1152 559
13 941 713
14 1009 455
EOF



